qbf_easy_train/easy_5463_SAT.qdimacs
p cnf 25 60
a 17 4 6 0
e 1 2 3 5 7 8 9 10 11 12 13 14 15 16 18 19 20 21 22 23 24 25 0
3 -1 0
3 -2 0
1 2 -3 0
5 -1 0
5 4 0
1 -4 -5 0
-7 -5 0
-7 6 0
5 -6 7 0
-8 7 0
-8 2 0
-7 -2 8 0
9 -6 0
9 -5 0
6 5 -9 0
10 -8 0
10 -9 0
8 9 -10 0
-3 -10 -11 0
3 10 -11 0
-3 10 11 0
3 -10 11 0
13 -5 0
13 12 0
5 -12 -13 0
14 2 0
14 -13 0
-2 13 -14 0
-15 -6 0
-15 14 0
6 -14 15 0
-16 17 -18 0
16 -17 -18 0
-16 -17 18 0
16 17 18 0
19 -15 0
19 -18 0
15 18 -19 0
20 11 0
20 19 0
-11 -19 -20 0
16 12 -21 0
-16 -12 -21 0
16 -12 21 0
-16 12 21 0
-23 -12 0
-23 22 0
12 -22 23 0
24 -21 0
24 23 0
21 -23 -24 0
-25 -20 0
-25 24 0
20 -24 25 0
22 -6 5 -9 14 0
-11 -21 -15 -25 0
4 -2 22 3 0
-5 16 19 0
-25 -2 4 0
25 0
