sat_easy_train/easy_5463_SAT.dimacs
p cnf 139 460
4 -2 0
4 -3 0
2 3 -4 0
7 5 0
7 6 0
-5 -6 -7 0
-8 4 0
-8 -7 0
-4 7 8 0
-9 1 0
-9 8 0
-1 -8 9 0
-11 10 0
-11 3 0
-10 -3 11 0
9 11 -12 0
-9 -11 -12 0
9 -11 12 0
-9 11 12 0
-15 -13 0
-15 14 0
13 -14 15 0
-16 12 0
-16 15 0
-12 -15 16 0
17 2 0
17 -3 0
-2 3 -17 0
18 17 0
18 9 0
-17 -9 -18 0
19 -15 0
19 -18 0
15 18 -19 0
-17 12 -20 0
17 -12 -20 0
-17 -12 20 0
17 12 20 0
21 19 0
21 20 0
-19 -20 -21 0
-22 -16 0
-22 -21 0
16 21 22 0
-25 -23 0
-25 -24 0
23 24 25 0
26 -22 0
26 25 0
22 -25 -26 0
-29 27 0
-29 28 0
-27 -28 29 0
-30 29 0
-30 15 0
-29 -15 30 0
32 -31 0
32 14 0
31 -14 -32 0
33 -8 0
33 11 0
8 -11 -33 0
-34 -29 0
-34 13 0
29 -13 34 0
35 33 0
35 34 0
-33 -34 -35 0
-32 -35 -36 0
32 35 -36 0
-32 35 36 0
32 -35 36 0
4 -24 -37 0
-4 24 -37 0
4 24 37 0
-4 -24 37 0
38 -11 0
38 -37 0
11 37 -38 0
39 38 0
39 -23 0
-38 23 -39 0
36 39 -40 0
-36 -39 -40 0
36 -39 40 0
-36 39 40 0
-31 41 -42 0
31 -41 -42 0
-31 -41 42 0
31 41 42 0
43 -7 0
43 29 0
7 -29 -43 0
-44 -43 0
-44 17 0
43 -17 44 0
-45 37 0
-45 -43 0
-37 43 45 0
-46 -14 0
-46 45 0
14 -45 46 0
44 -46 -47 0
-44 46 -47 0
44 46 47 0
-44 -46 47 0
-42 47 -48 0
42 -47 -48 0
-42 -47 48 0
42 47 48 0
40 48 -49 0
-40 -48 -49 0
40 -48 49 0
-40 48 49 0
-50 -14 0
-50 -23 0
14 23 50 0
-51 -6 0
-51 50 0
6 -50 51 0
52 -41 0
52 51 0
41 -51 -52 0
-24 10 -53 0
24 -10 -53 0
-24 -10 53 0
24 10 53 0
54 -53 0
54 -14 0
53 14 -54 0
13 -54 -55 0
-13 54 -55 0
13 54 55 0
-13 -54 55 0
56 52 0
56 55 0
-52 -55 -56 0
-57 51 0
-57 3 0
-51 -3 57 0
-56 57 -58 0
56 -57 -58 0
-56 -57 58 0
56 57 58 0
49 58 -59 0
-49 -58 -59 0
49 -58 59 0
-49 58 59 0
60 30 0
60 -59 0
-30 59 -60 0
-61 14 0
-61 -17 0
-14 17 61 0
61 -42 -62 0
-61 42 -62 0
61 42 62 0
-61 -42 62 0
63 -2 0
63 -3 0
2 3 -63 0
64 63 0
64 50 0
-63 -50 -64 0
65 -24 0
65 -64 0
24 64 -65 0
-66 -62 0
-66 65 0
62 -65 66 0
67 14 0
67 64 0
-14 -64 -67 0
-8 -67 -68 0
8 67 -68 0
-8 67 68 0
8 -67 68 0
69 66 0
69 -68 0
-66 68 -69 0
-70 54 0
-70 -65 0
-54 65 70 0
71 31 0
71 -10 0
-31 10 -71 0
-72 54 0
-72 -8 0
-54 8 72 0
-73 -71 0
-73 -72 0
71 72 73 0
-74 -70 0
-74 73 0
70 -73 74 0
-75 64 0
-75 -43 0
-64 43 75 0
-76 -11 0
-76 -31 0
11 31 76 0
-77 -75 0
-77 76 0
75 -76 77 0
78 64 0
78 -50 0
-64 50 -78 0
-77 -78 -79 0
77 78 -79 0
-77 78 79 0
77 -78 79 0
-79 -46 -80 0
79 46 -80 0
-79 46 80 0
79 -46 80 0
82 -63 0
82 14 0
63 -14 -82 0
-83 81 0
-83 -82 0
-81 82 83 0
-84 80 0
-84 83 0
-80 -83 84 0
51 85 0
-51 85 0
84 85 -86 0
-84 -85 -86 0
84 -85 86 0
-84 85 86 0
74 86 -87 0
-74 -86 -87 0
74 -86 87 0
-74 86 87 0
-69 -87 -88 0
69 87 -88 0
-69 87 88 0
69 -87 88 0
89 -29 0
89 5 0
29 -5 -89 0
-90 51 0
-90 -89 0
-51 89 90 0
91 10 0
91 64 0
-10 -64 -91 0
9 89 -92 0
-9 -89 -92 0
9 -89 92 0
-9 89 92 0
93 -92 0
93 12 0
92 -12 -93 0
-94 91 0
-94 -93 0
-91 93 94 0
95 -11 0
95 -64 0
11 64 -95 0
-96 94 0
-96 95 0
-94 -95 96 0
-97 -90 0
-97 96 0
90 -96 97 0
23 6 -98 0
-23 -6 -98 0
23 -6 98 0
-23 6 98 0
99 67 0
99 -98 0
-67 98 -99 0
100 -64 0
100 76 0
64 -76 -100 0
-101 -99 0
-101 -100 0
99 100 101 0
-102 101 0
-102 -23 0
-101 23 102 0
-103 -97 0
-103 102 0
97 -102 103 0
104 -2 0
104 -11 0
2 11 -104 0
105 -2 0
105 63 0
2 -63 -105 0
106 28 0
106 -105 0
-28 105 -106 0
-43 -37 -108 0
43 37 -108 0
-43 37 108 0
43 -37 108 0
109 107 0
109 -108 0
-107 108 -109 0
109 3 -110 0
-109 -3 -110 0
109 -3 110 0
-109 3 110 0
111 8 0
111 98 0
-8 -98 -111 0
112 -111 0
112 37 0
111 -37 -112 0
-113 -38 0
-113 10 0
38 -10 113 0
-114 -112 0
-114 -113 0
112 113 114 0
-115 -15 0
-115 64 0
15 -64 115 0
23 4 -116 0
-23 -4 -116 0
23 -4 116 0
-23 4 116 0
117 -116 0
117 64 0
116 -64 -117 0
118 -115 0
118 117 0
115 -117 -118 0
119 114 0
119 118 0
-114 -118 -119 0
-120 29 0
-120 3 0
-29 -3 120 0
-121 119 0
-121 120 0
-119 -120 121 0
-122 -110 0
-122 -121 0
110 121 122 0
123 106 0
123 122 0
-106 -122 -123 0
-104 -123 -124 0
104 123 -124 0
-104 123 124 0
104 -123 124 0
-125 -24 0
-125 24 0
-124 -125 -126 0
124 125 -126 0
-124 125 126 0
124 -125 126 0
127 -42 0
127 -108 0
42 108 -127 0
-11 127 -128 0
11 -127 -128 0
-11 -127 128 0
11 127 128 0
-129 23 0
-129 -8 0
-23 8 129 0
130 128 0
130 -129 0
-128 129 -130 0
-2 100 -131 0
2 -100 -131 0
-2 -100 131 0
2 100 131 0
-132 -131 0
-132 -4 0
131 4 132 0
133 132 0
133 -78 0
-132 78 -133 0
-130 -133 -134 0
130 133 -134 0
-130 133 134 0
130 -133 134 0
-135 -126 0
-135 -134 0
126 134 135 0
136 103 0
136 135 0
-103 -135 -136 0
88 136 -137 0
-88 -136 -137 0
88 -136 137 0
-88 136 137 0
-138 60 0
-138 137 0
-60 -137 138 0
-26 138 -139 0
26 -138 -139 0
-26 -138 139 0
26 138 139 0
-64 -15 0
64 -113 30 -124 42 0
115 -28 -55 -105 26 0
119 -107 -28 -79 0
-5 -102 20 0
10 92 -81 34 0
-91 -133 -62 -127 -23 0
-83 111 16 0
-76 122 -66 129 -77 0
27 -121 79 0
-111 61 -88 0
-28 -54 -40 -74 -75 58 0
-54 -134 0
10 58 -13 -43 -125 -48 0
-139 -117 6 24 0
-70 -105 61 89 43 -39 0
127 -62 131 -2 0
-37 13 0
106 64 -84 119 0
71 -33 107 23 -7 70 0
34 82 86 0
-20 -108 0
120 126 0
68 -9 -5 -52 70 99 0
60 -75 20 0
139 102 110 -59 85 2 0
-85 96 -43 -121 65 98 0
2 36 -96 111 0
-107 -5 -111 63 13 0
81 38 -75 105 0
96 -97 13 76 7 0
-81 77 5 57 95 41 0
96 -88 0
-136 123 -92 -28 -18 -69 0
135 53 -88 70 0
-129 -47 -131 74 -7 0
81 2 -110 131 91 -60 0
-26 103 90 33 0
-13 -22 0
-83 -29 32 0
-109 -113 -96 -129 0
41 27 85 -74 -78 0
12 27 -59 -137 -50 -73 0
-89 100 29 0
127 -36 8 0
-37 -81 -82 0
-52 137 -37 -132 -122 0
77 86 75 0
-10 -50 126 0
-67 71 0
109 122 24 -39 -137 0
-13 85 68 -6 -28 0
31 47 83 -38 -104 0
92 27 0
-30 116 57 -76 -46 0
-55 78 105 -28 -93 0
-9 -66 -33 108 -59 49 0
-127 11 0
-56 -116 5 6 0
84 21 47 0
139 0
